100 61810

 305 784
983 11
643 762
718 894
977 433
378 536
802 477
435 390
870 888
181 894
948 336
219 616
327 927
757 963
394 509
609 453
445 279
743 959
229 143
59 580
300 283
475 280
169 405
355 999
400 55
58 579
584 83
885 155
152 440
598 511
665 259
420 317
702 87
411 304
505 967
8 945
692 335
662 571
39 910
369 7
980 811
421 949
502 92
910 162
718 961
583 538
798 15
865 258
457 450
476 693
387 734
967 996
698 288
84 539
863 534
481 406
69 170
550 978
418 854
878 499
204 604
827 228
558 544
55 695
972 516
513 991
291 612
470 371
858 773
305 171
193 385
130 347
298 432
781 782
472 485
228 795
167 577
333 343
940 810
344 239
989 225
486 505
180 261
892 10
461 649
710 512
984 446
51 967
97 572
721 864
282 140
185 570
40 868
22 584
775 719
135 373
468 93
606 458
429 395
28 868
